\ This file was automatically generated by Zimpl
\ set I := { 1..10 };
\ var x[I] integer >= -10 <= 10;
\ subto c1: vif x[1] <  0 then x[2] ==  9 end;
\ subto c2: vif x[1] <= 0 then x[2] ==  8 end;
\ subto c3: vif x[1] == 0 then x[2] ==  7 end;
\ subto c4: vif x[1] != 0 then x[2] ==  6 end;
\ subto c5: vif x[1] >= 0 then x[2] ==  5 end;
\ subto c6: vif x[1] >  0 then x[2] ==  4 end;
\ subto c7: forall <i> in I with i < 4 :    vif vabs(x[1] + x[2]) <= 5 then x[3] + x[4] >= 5 else x[5] + x[6] >= 8 end;
\ subto c8: vif 3 * x[1] + x[2] != 7     then sum <i> in I : x[i] <= 17    else sum <i> in I : x[i] >= 5 end;
\ subto c9: vif x[1] == 1 and x[2] > 5             or x[1] == 2 and x[2] < 8 then x[3] == 7 end;
\ subto c10: vif x[1] != 1 xor not x[2] == 5 then x[3] <= 2 end;
\ subto c11: vif x[1] == 1  then x[2] == 0 else x[3] == 0 end, indicator;
\Problem name: vinst.zpl
Minimize
 Objective: 
Subject to
 c1_1_a_0:
  + __c1_1_xm_1@b - __c1_1_xp_0@a + x#1 = 0
 c1_1_b_1:
  - __c1_1_xp_0@a + __c1_1_bp_2@c <= 0
 c1_1_c_2:
  - __c1_1_xm_1@b + __c1_1_bm_3@d <= 0
 c1_1_d_3:
  - __c1_1_xp_0@a +10 __c1_1_bp_2@c >= 0
 c1_1_e_4:
  - __c1_1_xm_1@b +10 __c1_1_bm_3@d >= 0
 c1_1_f_5:
  + __c1_1_bm_3@d + __c1_1_bp_2@c <= 1
 c1_1_g_6:
  - __c1_1_bm_3@d + __c1_1_re_4@e = 0
 c1_1_t_r:
  + x#2 + __c1_1_re_4@e <= 10
 c1_1_t_l:
  + x#2 -19 __c1_1_re_4@e >= -10
 c2_1_a_7:
  + __c2_1_xm_6@10 - __c2_1_xp_5@f + x#1 = 0
 c2_1_b_8:
  - __c2_1_xp_5@f + __c2_1_bp_7@11 <= 0
 c2_1_c_9:
  - __c2_1_xm_6@10 + __c2_1_bm_8@12 <= 0
 c2_1_d_10:
  - __c2_1_xp_5@f +10 __c2_1_bp_7@11 >= 0
 c2_1_e_11:
  - __c2_1_xm_6@10 +10 __c2_1_bm_8@12 >= 0
 c2_1_f_12:
  + __c2_1_bm_8@12 + __c2_1_bp_7@11 <= 1
 c2_1_g_13:
  + __c2_1_bp_7@11 + __c2_1_re_9@13 = 1
 c2_1_t_r:
  + x#2 +2 __c2_1_re_9@13 <= 10
 c2_1_t_l:
  + x#2 -18 __c2_1_re_9@13 >= -10
 c3_1_a_14:
  + __c3_1_xm_11@15 - __c3_1_xp_10@14 + x#1 = 0
 c3_1_b_15:
  - __c3_1_xp_10@14 + __c3_1_bp_12@16 <= 0
 c3_1_c_16:
  - __c3_1_xm_11@15 + __c3_1_bm_13@17 <= 0
 c3_1_d_17:
  - __c3_1_xp_10@14 +10 __c3_1_bp_12@16 >= 0
 c3_1_e_18:
  - __c3_1_xm_11@15 +10 __c3_1_bm_13@17 >= 0
 c3_1_f_19:
  + __c3_1_bm_13@17 + __c3_1_bp_12@16 + __c3_1_re_14@18 = 1
 c3_1_t_r:
  + x#2 +3 __c3_1_re_14@18 <= 10
 c3_1_t_l:
  + x#2 -17 __c3_1_re_14@18 >= -10
 c4_1_a_20:
  + __c4_1_xm_16@1a - __c4_1_xp_15@19 + x#1 = 0
 c4_1_b_21:
  - __c4_1_xp_15@19 + __c4_1_bp_17@1b <= 0
 c4_1_c_22:
  - __c4_1_xm_16@1a + __c4_1_bm_18@1c <= 0
 c4_1_d_23:
  - __c4_1_xp_15@19 +10 __c4_1_bp_17@1b >= 0
 c4_1_e_24:
  - __c4_1_xm_16@1a +10 __c4_1_bm_18@1c >= 0
 c4_1_f_25:
  - __c4_1_bm_18@1c - __c4_1_bp_17@1b + __c4_1_re_19@1d = 0
 c4_1_t_r:
  + x#2 +4 __c4_1_re_19@1d <= 10
 c4_1_t_l:
  + x#2 -16 __c4_1_re_19@1d >= -10
 c5_1_a_26:
  + __c5_1_xm_21@1f - __c5_1_xp_20@1e + x#1 = 0
 c5_1_b_27:
  - __c5_1_xp_20@1e + __c5_1_bp_22@20 <= 0
 c5_1_c_28:
  - __c5_1_xm_21@1f + __c5_1_bm_23@21 <= 0
 c5_1_d_29:
  - __c5_1_xp_20@1e +10 __c5_1_bp_22@20 >= 0
 c5_1_e_30:
  - __c5_1_xm_21@1f +10 __c5_1_bm_23@21 >= 0
 c5_1_f_31:
  + __c5_1_bm_23@21 + __c5_1_bp_22@20 <= 1
 c5_1_g_32:
  + __c5_1_bm_23@21 + __c5_1_re_24@22 = 1
 c5_1_t_r:
  + x#2 +5 __c5_1_re_24@22 <= 10
 c5_1_t_l:
  + x#2 -15 __c5_1_re_24@22 >= -10
 c6_1_a_33:
  + __c6_1_xm_26@24 - __c6_1_xp_25@23 + x#1 = 0
 c6_1_b_34:
  - __c6_1_xp_25@23 + __c6_1_bp_27@25 <= 0
 c6_1_c_35:
  - __c6_1_xm_26@24 + __c6_1_bm_28@26 <= 0
 c6_1_d_36:
  - __c6_1_xp_25@23 +10 __c6_1_bp_27@25 >= 0
 c6_1_e_37:
  - __c6_1_xm_26@24 +10 __c6_1_bm_28@26 >= 0
 c6_1_f_38:
  + __c6_1_bm_28@26 + __c6_1_bp_27@25 <= 1
 c6_1_g_39:
  - __c6_1_bp_27@25 + __c6_1_re_29@27 = 0
 c6_1_t_r:
  + x#2 +6 __c6_1_re_29@27 <= 10
 c6_1_t_l:
  + x#2 -14 __c6_1_re_29@27 >= -10
 c7_1_a_40:
  + __c7_1_xm_31@29 - __c7_1_xp_30@28 + x#2 + x#1 = 0
 c7_1_b_41:
  - __c7_1_xp_30@28 +20 __c7_1_bp_32@2a >= 0
 c7_1_c_42:
  + __c7_1_xm_31@29 +20 __c7_1_bp_32@2a <= 20
 c7_1_d_43:
  - __c7_1_xm_31@29 - __c7_1_xp_30@28 + __c7_1_re_33@2b = 0
 c7_1_a_44:
  + __c7_1_xm_35@2d - __c7_1_xp_34@2c + __c7_1_re_33@2b = 5
 c7_1_b_45:
  - __c7_1_xp_34@2c + __c7_1_bp_36@2e <= 0
 c7_1_c_46:
  - __c7_1_xm_35@2d + __c7_1_bm_37@2f <= 0
 c7_1_d_47:
  - __c7_1_xp_34@2c +15 __c7_1_bp_36@2e >= 0
 c7_1_e_48:
  - __c7_1_xm_35@2d +5 __c7_1_bm_37@2f >= 0
 c7_1_f_49:
  + __c7_1_bm_37@2f + __c7_1_bp_36@2e <= 1
 c7_1_g_50:
  + __c7_1_bp_36@2e + __c7_1_re_38@30 = 1
 c7_1_t_l:
  + x#4 + x#3 -25 __c7_1_re_38@30 >= -20
 c7_1_e_l:
  + x#6 + x#5 +28 __c7_1_re_38@30 >= 8
 c7_2_a_51:
  + __c7_2_xm_40@32 - __c7_2_xp_39@31 + x#2 + x#1 = 0
 c7_2_b_52:
  - __c7_2_xp_39@31 +20 __c7_2_bp_41@33 >= 0
 c7_2_c_53:
  + __c7_2_xm_40@32 +20 __c7_2_bp_41@33 <= 20
 c7_2_d_54:
  - __c7_2_xm_40@32 - __c7_2_xp_39@31 + __c7_2_re_42@34 = 0
 c7_2_a_55:
  + __c7_2_xm_44@36 - __c7_2_xp_43@35 + __c7_2_re_42@34 = 5
 c7_2_b_56:
  - __c7_2_xp_43@35 + __c7_2_bp_45@37 <= 0
 c7_2_c_57:
  - __c7_2_xm_44@36 + __c7_2_bm_46@38 <= 0
 c7_2_d_58:
  - __c7_2_xp_43@35 +15 __c7_2_bp_45@37 >= 0
 c7_2_e_59:
  - __c7_2_xm_44@36 +5 __c7_2_bm_46@38 >= 0
 c7_2_f_60:
  + __c7_2_bm_46@38 + __c7_2_bp_45@37 <= 1
 c7_2_g_61:
  + __c7_2_bp_45@37 + __c7_2_re_47@39 = 1
 c7_2_t_l:
  + x#4 + x#3 -25 __c7_2_re_47@39 >= -20
 c7_2_e_l:
  + x#6 + x#5 +28 __c7_2_re_47@39 >= 8
 c7_3_a_62:
  + __c7_3_xm_49@3b - __c7_3_xp_48@3a + x#2 + x#1 = 0
 c7_3_b_63:
  - __c7_3_xp_48@3a +20 __c7_3_bp_50@3c >= 0
 c7_3_c_64:
  + __c7_3_xm_49@3b +20 __c7_3_bp_50@3c <= 20
 c7_3_d_65:
  - __c7_3_xm_49@3b - __c7_3_xp_48@3a + __c7_3_re_51@3d = 0
 c7_3_a_66:
  + __c7_3_xm_53@3f - __c7_3_xp_52@3e + __c7_3_re_51@3d = 5
 c7_3_b_67:
  - __c7_3_xp_52@3e + __c7_3_bp_54@40 <= 0
 c7_3_c_68:
  - __c7_3_xm_53@3f + __c7_3_bm_55@41 <= 0
 c7_3_d_69:
  - __c7_3_xp_52@3e +15 __c7_3_bp_54@40 >= 0
 c7_3_e_70:
  - __c7_3_xm_53@3f +5 __c7_3_bm_55@41 >= 0
 c7_3_f_71:
  + __c7_3_bm_55@41 + __c7_3_bp_54@40 <= 1
 c7_3_g_72:
  + __c7_3_bp_54@40 + __c7_3_re_56@42 = 1
 c7_3_t_l:
  + x#4 + x#3 -25 __c7_3_re_56@42 >= -20
 c7_3_e_l:
  + x#6 + x#5 +28 __c7_3_re_56@42 >= 8
 c8_1_a_73:
  + __c8_1_xm_58@44 - __c8_1_xp_57@43 + x#2 +3 x#1 = 7
 c8_1_b_74:
  - __c8_1_xp_57@43 + __c8_1_bp_59@45 <= 0
 c8_1_c_75:
  - __c8_1_xm_58@44 + __c8_1_bm_60@46 <= 0
 c8_1_d_76:
  - __c8_1_xp_57@43 +33 __c8_1_bp_59@45 >= 0
 c8_1_e_77:
  - __c8_1_xm_58@44 +47 __c8_1_bm_60@46 >= 0
 c8_1_f_78:
  - __c8_1_bm_60@46 - __c8_1_bp_59@45 + __c8_1_re_61@47 = 0
 c8_1_t_r:
  + x#10 + x#9 + x#8 + x#7 + x#6 + x#5
  + x#4 + x#3 + x#2 + x#1 +83 __c8_1_re_61@47 <= 100
 c8_1_e_l:
  + x#10 + x#9 + x#8 + x#7 + x#6 + x#5
  + x#4 + x#3 + x#2 + x#1 +105 __c8_1_re_61@47 >= 5
 c9_1_a_79:
  + __c9_1_xm_63@49 - __c9_1_xp_62@48 + x#1 = 1
 c9_1_b_80:
  - __c9_1_xp_62@48 + __c9_1_bp_64@4a <= 0
 c9_1_c_81:
  - __c9_1_xm_63@49 + __c9_1_bm_65@4b <= 0
 c9_1_d_82:
  - __c9_1_xp_62@48 +9 __c9_1_bp_64@4a >= 0
 c9_1_e_83:
  - __c9_1_xm_63@49 +11 __c9_1_bm_65@4b >= 0
 c9_1_f_84:
  + __c9_1_bm_65@4b + __c9_1_bp_64@4a + __c9_1_re_66@4c = 1
 c9_1_a_85:
  + __c9_1_xm_68@4e - __c9_1_xp_67@4d + x#2 = 5
 c9_1_b_86:
  - __c9_1_xp_67@4d + __c9_1_bp_69@4f <= 0
 c9_1_c_87:
  - __c9_1_xm_68@4e + __c9_1_bm_70@50 <= 0
 c9_1_d_88:
  - __c9_1_xp_67@4d +5 __c9_1_bp_69@4f >= 0
 c9_1_e_89:
  - __c9_1_xm_68@4e +15 __c9_1_bm_70@50 >= 0
 c9_1_f_90:
  + __c9_1_bm_70@50 + __c9_1_bp_69@4f <= 1
 c9_1_g_91:
  - __c9_1_bp_69@4f + __c9_1_re_71@51 = 0
 c9_1_a_92:
  - __c9_1_re_72@52 + __c9_1_re_66@4c >= 0
 c9_1_b_93:
  - __c9_1_re_72@52 + __c9_1_re_71@51 >= 0
 c9_1_c_94:
  - __c9_1_re_72@52 + __c9_1_re_71@51 + __c9_1_re_66@4c <= 1
 c9_1_a_95:
  + __c9_1_xm_74@54 - __c9_1_xp_73@53 + x#1 = 2
 c9_1_b_96:
  - __c9_1_xp_73@53 + __c9_1_bp_75@55 <= 0
 c9_1_c_97:
  - __c9_1_xm_74@54 + __c9_1_bm_76@56 <= 0
 c9_1_d_98:
  - __c9_1_xp_73@53 +8 __c9_1_bp_75@55 >= 0
 c9_1_e_99:
  - __c9_1_xm_74@54 +12 __c9_1_bm_76@56 >= 0
 c9_1_f_100:
  + __c9_1_bm_76@56 + __c9_1_bp_75@55 + __c9_1_re_77@57 = 1
 c9_1_a_101:
  + __c9_1_xm_79@59 - __c9_1_xp_78@58 + x#2 = 8
 c9_1_b_102:
  - __c9_1_xp_78@58 + __c9_1_bp_80@5a <= 0
 c9_1_c_103:
  - __c9_1_xm_79@59 + __c9_1_bm_81@5b <= 0
 c9_1_d_104:
  - __c9_1_xp_78@58 +2 __c9_1_bp_80@5a >= 0
 c9_1_e_105:
  - __c9_1_xm_79@59 +18 __c9_1_bm_81@5b >= 0
 c9_1_f_106:
  + __c9_1_bm_81@5b + __c9_1_bp_80@5a <= 1
 c9_1_g_107:
  - __c9_1_bm_81@5b + __c9_1_re_82@5c = 0
 c9_1_a_108:
  - __c9_1_re_83@5d + __c9_1_re_77@57 >= 0
 c9_1_b_109:
  - __c9_1_re_83@5d + __c9_1_re_82@5c >= 0
 c9_1_c_110:
  - __c9_1_re_83@5d + __c9_1_re_82@5c + __c9_1_re_77@57 <= 1
 c9_1_a_111:
  - __c9_1_re_84@5e + __c9_1_re_72@52 <= 0
 c9_1_b_112:
  - __c9_1_re_84@5e + __c9_1_re_83@5d <= 0
 c9_1_c_113:
  - __c9_1_re_84@5e + __c9_1_re_83@5d + __c9_1_re_72@52 >= 0
 c9_1_t_r:
  + x#3 +3 __c9_1_re_84@5e <= 10
 c9_1_t_l:
  + x#3 -17 __c9_1_re_84@5e >= -10
 c10_1_a_114:
  + __c10_1_xm_86@60 - __c10_1_xp_85@5f + x#1 = 1
 c10_1_b_115:
  - __c10_1_xp_85@5f + __c10_1_bp_87@61 <= 0
 c10_1_c_116:
  - __c10_1_xm_86@60 + __c10_1_bm_88@62 <= 0
 c10_1_d_117:
  - __c10_1_xp_85@5f +9 __c10_1_bp_87@61 >= 0
 c10_1_e_118:
  - __c10_1_xm_86@60 +11 __c10_1_bm_88@62 >= 0
 c10_1_f_119:
  - __c10_1_bm_88@62 - __c10_1_bp_87@61 + __c10_1_re_89@63 = 0
 c10_1_a_120:
  + __c10_1_xm_91@65 - __c10_1_xp_90@64 + x#2 = 5
 c10_1_b_121:
  - __c10_1_xp_90@64 + __c10_1_bp_92@66 <= 0
 c10_1_c_122:
  - __c10_1_xm_91@65 + __c10_1_bm_93@67 <= 0
 c10_1_d_123:
  - __c10_1_xp_90@64 +5 __c10_1_bp_92@66 >= 0
 c10_1_e_124:
  - __c10_1_xm_91@65 +15 __c10_1_bm_93@67 >= 0
 c10_1_f_125:
  + __c10_1_bm_93@67 + __c10_1_bp_92@66 + __c10_1_re_94@68 = 1
 c10_1_a_126:
  + __c10_1_re_95@69 + __c10_1_re_94@68 = 1
 c10_1_a_127:
  - __c10_1_re_96@6a + __c10_1_re_95@69 + __c10_1_re_89@63 >= 0
 c10_1_b_128:
  - __c10_1_re_96@6a - __c10_1_re_95@69 + __c10_1_re_89@63 <= 0
 c10_1_c_129:
  + __c10_1_re_96@6a - __c10_1_re_95@69 + __c10_1_re_89@63 >= 0
 c10_1_d_130:
  + __c10_1_re_96@6a + __c10_1_re_95@69 + __c10_1_re_89@63 <= 2
 c10_1_t_r:
  + x#3 +8 __c10_1_re_96@6a <= 10
 c11_1_a_131:
  + __c11_1_xm_98@6c - __c11_1_xp_97@6b + x#1 = 1
 c11_1_b_132:
  - __c11_1_xp_97@6b + __c11_1_bp_99@6d <= 0
 c11_1_c_133:
  - __c11_1_xm_98@6c + __c11_1_bm_10@6e <= 0
 c11_1_d_134:
  - __c11_1_xp_97@6b +9 __c11_1_bp_99@6d >= 0
 c11_1_e_135:
  - __c11_1_xm_98@6c +11 __c11_1_bm_10@6e >= 0
 c11_1_f_136:
  + __c11_1_bm_10@6e + __c11_1_bp_99@6d + __c11_1_re_10@6f = 1
 c11_1_t:
 __c11_1_re_10@6f = 1 ->  + x#2 = 0
 c11_1_f:
 __c11_1_re_10@6f = 0 ->  + x#3 = 0
Bounds
 -10 <= x#1 <= 10
 -10 <= x#2 <= 10
 -10 <= x#3 <= 10
 -10 <= x#4 <= 10
 -10 <= x#5 <= 10
 -10 <= x#6 <= 10
 -10 <= x#7 <= 10
 -10 <= x#8 <= 10
 -10 <= x#9 <= 10
 -10 <= x#10 <= 10
 0 <= __c1_1_xp_0@a <= 10
 0 <= __c1_1_xm_1@b <= 10
 0 <= __c1_1_bp_2@c <= 1
 0 <= __c1_1_bm_3@d <= 1
 0 <= __c1_1_re_4@e <= 1
 0 <= __c2_1_xp_5@f <= 10
 0 <= __c2_1_xm_6@10 <= 10
 0 <= __c2_1_bp_7@11 <= 1
 0 <= __c2_1_bm_8@12 <= 1
 0 <= __c2_1_re_9@13 <= 1
 0 <= __c3_1_xp_10@14 <= 10
 0 <= __c3_1_xm_11@15 <= 10
 0 <= __c3_1_bp_12@16 <= 1
 0 <= __c3_1_bm_13@17 <= 1
 0 <= __c3_1_re_14@18 <= 1
 0 <= __c4_1_xp_15@19 <= 10
 0 <= __c4_1_xm_16@1a <= 10
 0 <= __c4_1_bp_17@1b <= 1
 0 <= __c4_1_bm_18@1c <= 1
 0 <= __c4_1_re_19@1d <= 1
 0 <= __c5_1_xp_20@1e <= 10
 0 <= __c5_1_xm_21@1f <= 10
 0 <= __c5_1_bp_22@20 <= 1
 0 <= __c5_1_bm_23@21 <= 1
 0 <= __c5_1_re_24@22 <= 1
 0 <= __c6_1_xp_25@23 <= 10
 0 <= __c6_1_xm_26@24 <= 10
 0 <= __c6_1_bp_27@25 <= 1
 0 <= __c6_1_bm_28@26 <= 1
 0 <= __c6_1_re_29@27 <= 1
 0 <= __c7_1_xp_30@28 <= 20
 0 <= __c7_1_xm_31@29 <= 20
 0 <= __c7_1_bp_32@2a <= 1
 0 <= __c7_1_re_33@2b <= 20
 0 <= __c7_1_xp_34@2c <= 15
 0 <= __c7_1_xm_35@2d <= 5
 0 <= __c7_1_bp_36@2e <= 1
 0 <= __c7_1_bm_37@2f <= 1
 0 <= __c7_1_re_38@30 <= 1
 0 <= __c7_2_xp_39@31 <= 20
 0 <= __c7_2_xm_40@32 <= 20
 0 <= __c7_2_bp_41@33 <= 1
 0 <= __c7_2_re_42@34 <= 20
 0 <= __c7_2_xp_43@35 <= 15
 0 <= __c7_2_xm_44@36 <= 5
 0 <= __c7_2_bp_45@37 <= 1
 0 <= __c7_2_bm_46@38 <= 1
 0 <= __c7_2_re_47@39 <= 1
 0 <= __c7_3_xp_48@3a <= 20
 0 <= __c7_3_xm_49@3b <= 20
 0 <= __c7_3_bp_50@3c <= 1
 0 <= __c7_3_re_51@3d <= 20
 0 <= __c7_3_xp_52@3e <= 15
 0 <= __c7_3_xm_53@3f <= 5
 0 <= __c7_3_bp_54@40 <= 1
 0 <= __c7_3_bm_55@41 <= 1
 0 <= __c7_3_re_56@42 <= 1
 0 <= __c8_1_xp_57@43 <= 33
 0 <= __c8_1_xm_58@44 <= 47
 0 <= __c8_1_bp_59@45 <= 1
 0 <= __c8_1_bm_60@46 <= 1
 0 <= __c8_1_re_61@47 <= 1
 0 <= __c9_1_xp_62@48 <= 9
 0 <= __c9_1_xm_63@49 <= 11
 0 <= __c9_1_bp_64@4a <= 1
 0 <= __c9_1_bm_65@4b <= 1
 0 <= __c9_1_re_66@4c <= 1
 0 <= __c9_1_xp_67@4d <= 5
 0 <= __c9_1_xm_68@4e <= 15
 0 <= __c9_1_bp_69@4f <= 1
 0 <= __c9_1_bm_70@50 <= 1
 0 <= __c9_1_re_71@51 <= 1
 0 <= __c9_1_re_72@52 <= 1
 0 <= __c9_1_xp_73@53 <= 8
 0 <= __c9_1_xm_74@54 <= 12
 0 <= __c9_1_bp_75@55 <= 1
 0 <= __c9_1_bm_76@56 <= 1
 0 <= __c9_1_re_77@57 <= 1
 0 <= __c9_1_xp_78@58 <= 2
 0 <= __c9_1_xm_79@59 <= 18
 0 <= __c9_1_bp_80@5a <= 1
 0 <= __c9_1_bm_81@5b <= 1
 0 <= __c9_1_re_82@5c <= 1
 0 <= __c9_1_re_83@5d <= 1
 0 <= __c9_1_re_84@5e <= 1
 0 <= __c10_1_xp_85@5f <= 9
 0 <= __c10_1_xm_86@60 <= 11
 0 <= __c10_1_bp_87@61 <= 1
 0 <= __c10_1_bm_88@62 <= 1
 0 <= __c10_1_re_89@63 <= 1
 0 <= __c10_1_xp_90@64 <= 5
 0 <= __c10_1_xm_91@65 <= 15
 0 <= __c10_1_bp_92@66 <= 1
 0 <= __c10_1_bm_93@67 <= 1
 0 <= __c10_1_re_94@68 <= 1
 0 <= __c10_1_re_95@69 <= 1
 0 <= __c10_1_re_96@6a <= 1
 0 <= __c11_1_xp_97@6b <= 9
 0 <= __c11_1_xm_98@6c <= 11
 0 <= __c11_1_bp_99@6d <= 1
 0 <= __c11_1_bm_10@6e <= 1
 0 <= __c11_1_re_10@6f <= 1
General
 x#1
 x#2
 x#3
 x#4
 x#5
 x#6
 x#7
 x#8
 x#9
 x#10
 __c1_1_xp_0@a
 __c1_1_xm_1@b
 __c1_1_bp_2@c
 __c1_1_bm_3@d
 __c1_1_re_4@e
 __c2_1_xp_5@f
 __c2_1_xm_6@10
 __c2_1_bp_7@11
 __c2_1_bm_8@12
 __c2_1_re_9@13
 __c3_1_xp_10@14
 __c3_1_xm_11@15
 __c3_1_bp_12@16
 __c3_1_bm_13@17
 __c3_1_re_14@18
 __c4_1_xp_15@19
 __c4_1_xm_16@1a
 __c4_1_bp_17@1b
 __c4_1_bm_18@1c
 __c4_1_re_19@1d
 __c5_1_xp_20@1e
 __c5_1_xm_21@1f
 __c5_1_bp_22@20
 __c5_1_bm_23@21
 __c5_1_re_24@22
 __c6_1_xp_25@23
 __c6_1_xm_26@24
 __c6_1_bp_27@25
 __c6_1_bm_28@26
 __c6_1_re_29@27
 __c7_1_xp_30@28
 __c7_1_xm_31@29
 __c7_1_bp_32@2a
 __c7_1_re_33@2b
 __c7_1_xp_34@2c
 __c7_1_xm_35@2d
 __c7_1_bp_36@2e
 __c7_1_bm_37@2f
 __c7_1_re_38@30
 __c7_2_xp_39@31
 __c7_2_xm_40@32
 __c7_2_bp_41@33
 __c7_2_re_42@34
 __c7_2_xp_43@35
 __c7_2_xm_44@36
 __c7_2_bp_45@37
 __c7_2_bm_46@38
 __c7_2_re_47@39
 __c7_3_xp_48@3a
 __c7_3_xm_49@3b
 __c7_3_bp_50@3c
 __c7_3_re_51@3d
 __c7_3_xp_52@3e
 __c7_3_xm_53@3f
 __c7_3_bp_54@40
 __c7_3_bm_55@41
 __c7_3_re_56@42
 __c8_1_xp_57@43
 __c8_1_xm_58@44
 __c8_1_bp_59@45
 __c8_1_bm_60@46
 __c8_1_re_61@47
 __c9_1_xp_62@48
 __c9_1_xm_63@49
 __c9_1_bp_64@4a
 __c9_1_bm_65@4b
 __c9_1_re_66@4c
 __c9_1_xp_67@4d
 __c9_1_xm_68@4e
 __c9_1_bp_69@4f
 __c9_1_bm_70@50
 __c9_1_re_71@51
 __c9_1_re_72@52
 __c9_1_xp_73@53
 __c9_1_xm_74@54
 __c9_1_bp_75@55
 __c9_1_bm_76@56
 __c9_1_re_77@57
 __c9_1_xp_78@58
 __c9_1_xm_79@59
 __c9_1_bp_80@5a
 __c9_1_bm_81@5b
 __c9_1_re_82@5c
 __c9_1_re_83@5d
 __c9_1_re_84@5e
 __c10_1_xp_85@5f
 __c10_1_xm_86@60
 __c10_1_bp_87@61
 __c10_1_bm_88@62
 __c10_1_re_89@63
 __c10_1_xp_90@64
 __c10_1_xm_91@65
 __c10_1_bp_92@66
 __c10_1_bm_93@67
 __c10_1_re_94@68
 __c10_1_re_95@69
 __c10_1_re_96@6a
 __c11_1_xp_97@6b
 __c11_1_xm_98@6c
 __c11_1_bp_99@6d
 __c11_1_bm_10@6e
 __c11_1_re_10@6f
End
